decision_x1=[0,7];
decision_x2=[0,7];
decision_x3=[0,7];
decision_x4=[0,7];
decision_x5=[0,7];
decision_x6=[0,7];
decision_x7=[0,7];
decision_x8=[0,7];
decision_x9=[0,7];
decision_x10=[0,7];
decision_x11=[0,7];
decision_x12=[0,7];
decision_x13=[0,7];
decision_x14=[0,7];
decision_x15=[0,7];
decision_x16=[0,7];
decision_x17=[0,7];
decision_x18=[0,7];
decision_x19=[0,7];
decision_x20=[0,7];
random_y1=[0,7];
random_y2=[0,7];
random_y3=[0,7];
random_y4=[0,7];
random_y5=[0,7];
random_y6=[0,7];
random_y7=[0,7];
random_y8=[0,7];
random_y9=[0,7];
constraint_x2_x1=[
0,0,9.2|
0,1,5.9|
0,2,8.4|
0,3,1.5|
0,4,8|
0,5,6.3|
0,6,4.9|
0,7,4.4|
1,0,8.4|
1,1,1.3|
1,2,4|
1,3,5.4|
1,4,4.5|
1,5,8.5|
1,6,8.4|
1,7,8.6|
2,0,3.7|
2,1,4.8|
2,2,2.3|
2,3,8|
2,4,7.4|
2,5,8.4|
2,6,3.9|
2,7,8.8|
3,0,7.2|
3,1,4.6|
3,2,9.5|
3,3,7.5|
3,4,3|
3,5,3.7|
3,6,1.4|
3,7,9.9|
4,0,3.9|
4,1,5.1|
4,2,4.2|
4,3,4.1|
4,4,7.3|
4,5,5|
4,6,2.9|
4,7,6.2|
5,0,7|
5,1,4.7|
5,2,2.8|
5,3,5.5|
5,4,5.2|
5,5,2.1|
5,6,4|
5,7,3.4|
6,0,8.7|
6,1,6.2|
6,2,1.7|
6,3,6.5|
6,4,1|
6,5,7.3|
6,6,0.78|
6,7,7.4|
7,0,5.4|
7,1,7.8|
7,2,6.7|
7,3,8.8|
7,4,0.89|
7,5,4.2|
7,6,1.4|
7,7,3|
];
constraint_x3_x2=[
0,0,0.7|
0,1,2.4|
0,2,7.4|
0,3,6.1|
0,4,6.6|
0,5,10|
0,6,5.6|
0,7,1|
1,0,0.3|
1,1,1.7|
1,2,7.1|
1,3,4.2|
1,4,9.4|
1,5,9.3|
1,6,6.7|
1,7,5.4|
2,0,9.4|
2,1,7.3|
2,2,3.6|
2,3,6|
2,4,7.1|
2,5,6|
2,6,2.3|
2,7,6.2|
3,0,7.5|
3,1,5.7|
3,2,0.4|
3,3,1.4|
3,4,0.45|
3,5,9|
3,6,0.51|
3,7,9.5|
4,0,4.2|
4,1,7.7|
4,2,7.4|
4,3,2.9|
4,4,1.5|
4,5,2.7|
4,6,1.6|
4,7,4.1|
5,0,3.7|
5,1,1|
5,2,3.6|
5,3,4.9|
5,4,6.6|
5,5,4.7|
5,6,4.5|
5,7,0.52|
6,0,6.9|
6,1,4.7|
6,2,8.1|
6,3,4.9|
6,4,8.6|
6,5,4.7|
6,6,1.5|
6,7,7.6|
7,0,7.3|
7,1,5.8|
7,2,5.8|
7,3,5.3|
7,4,3.3|
7,5,0.57|
7,6,6.2|
7,7,2|
];
constraint_x4_x3=[
0,0,0.79|
0,1,0.86|
0,2,4.2|
0,3,8.9|
0,4,0.1|
0,5,1.8|
0,6,2.2|
0,7,0.3|
1,0,2.1|
1,1,0.33|
1,2,7.5|
1,3,8.7|
1,4,9.5|
1,5,8|
1,6,8.3|
1,7,3.8|
2,0,4.9|
2,1,9.6|
2,2,7.1|
2,3,8.8|
2,4,2.8|
2,5,5.3|
2,6,5.9|
2,7,8.6|
3,0,4.8|
3,1,4.5|
3,2,4.4|
3,3,9.5|
3,4,9.4|
3,5,9.7|
3,6,7.1|
3,7,6|
4,0,7.9|
4,1,9.5|
4,2,4.6|
4,3,0.28|
4,4,7.9|
4,5,4|
4,6,7.3|
4,7,7.9|
5,0,8.4|
5,1,1.2|
5,2,7|
5,3,2.3|
5,4,7.3|
5,5,7.6|
5,6,9.3|
5,7,6|
6,0,8.5|
6,1,5.1|
6,2,1.7|
6,3,2.7|
6,4,6|
6,5,9.6|
6,6,7.5|
6,7,0.6|
7,0,6.7|
7,1,8.9|
7,2,9.3|
7,3,3.8|
7,4,4.5|
7,5,7.8|
7,6,0.2|
7,7,8.9|
];
constraint_x5_x1=[
0,0,1.4|
0,1,0.0055|
0,2,8.6|
0,3,6.6|
0,4,6.2|
0,5,0.38|
0,6,5.1|
0,7,8.1|
1,0,6.1|
1,1,4.1|
1,2,7.9|
1,3,0.49|
1,4,9.9|
1,5,6.1|
1,6,0.2|
1,7,4.7|
2,0,8.9|
2,1,7.3|
2,2,4.3|
2,3,2.1|
2,4,5.8|
2,5,8.4|
2,6,3.1|
2,7,9.1|
3,0,3.2|
3,1,2.3|
3,2,2|
3,3,3.1|
3,4,3.1|
3,5,7|
3,6,1.4|
3,7,0.51|
4,0,9.5|
4,1,4.9|
4,2,0.68|
4,3,6.3|
4,4,1.1|
4,5,4.5|
4,6,8.6|
4,7,2.9|
5,0,0.15|
5,1,4.6|
5,2,8.4|
5,3,5.5|
5,4,0.71|
5,5,4.2|
5,6,2.7|
5,7,3.9|
6,0,6.2|
6,1,9.3|
6,2,5.1|
6,3,4.4|
6,4,6.1|
6,5,5.1|
6,6,2.6|
6,7,5.4|
7,0,8.6|
7,1,4.6|
7,2,6.2|
7,3,1.2|
7,4,2.9|
7,5,5.9|
7,6,0.66|
7,7,6.6|
];
constraint_x6_x2=[
0,0,5.1|
0,1,6.5|
0,2,2.9|
0,3,8.5|
0,4,1.2|
0,5,2.9|
0,6,8.3|
0,7,0.21|
1,0,3|
1,1,4.8|
1,2,2.2|
1,3,7.4|
1,4,3.8|
1,5,0.16|
1,6,7.1|
1,7,2.3|
2,0,3.7|
2,1,0.94|
2,2,5.5|
2,3,8.8|
2,4,6.5|
2,5,0.85|
2,6,5.6|
2,7,8.8|
3,0,9.2|
3,1,4.5|
3,2,8.1|
3,3,5.7|
3,4,8.3|
3,5,8.2|
3,6,8.6|
3,7,7.2|
4,0,0.44|
4,1,7.4|
4,2,4.1|
4,3,6.8|
4,4,1.5|
4,5,8.4|
4,6,4.5|
4,7,3.5|
5,0,9.6|
5,1,3.6|
5,2,6|
5,3,1.6|
5,4,0.57|
5,5,2.6|
5,6,1.1|
5,7,2.4|
6,0,6.7|
6,1,1.9|
6,2,7.9|
6,3,3|
6,4,2.9|
6,5,1.5|
6,6,7.8|
6,7,3.6|
7,0,6|
7,1,2.2|
7,2,6.4|
7,3,4.1|
7,4,1.3|
7,5,1.3|
7,6,5.6|
7,7,6.7|
];
constraint_x6_x5=[
0,0,9.2|
0,1,4.9|
0,2,7.6|
0,3,8.1|
0,4,0.58|
0,5,9.6|
0,6,6.4|
0,7,3.6|
1,0,9.3|
1,1,3|
1,2,4.1|
1,3,3.4|
1,4,5.2|
1,5,2|
1,6,0.95|
1,7,3.7|
2,0,2.4|
2,1,4.5|
2,2,5.1|
2,3,7.9|
2,4,8.6|
2,5,4.2|
2,6,2.6|
2,7,1.7|
3,0,2.4|
3,1,6.3|
3,2,4.6|
3,3,2.8|
3,4,8.9|
3,5,6.5|
3,6,0.12|
3,7,9.3|
4,0,5.9|
4,1,1.9|
4,2,9.4|
4,3,6.6|
4,4,1.6|
4,5,2.7|
4,6,4.6|
4,7,7.3|
5,0,5.5|
5,1,3.4|
5,2,3.3|
5,3,5.8|
5,4,5.3|
5,5,0.46|
5,6,3.7|
5,7,8.8|
6,0,3.8|
6,1,3.6|
6,2,5.9|
6,3,7.5|
6,4,9|
6,5,5.4|
6,6,6.1|
6,7,8.1|
7,0,2.6|
7,1,8.9|
7,2,8.2|
7,3,3.8|
7,4,2.8|
7,5,9.7|
7,6,9.1|
7,7,7.5|
];
constraint_x7_x3=[
0,0,7|
0,1,2.8|
0,2,1.4|
0,3,7|
0,4,0.9|
0,5,0.8|
0,6,0.44|
0,7,9|
1,0,6.6|
1,1,5.5|
1,2,7.7|
1,3,1.4|
1,4,9.7|
1,5,8.8|
1,6,6|
1,7,9.2|
2,0,4.9|
2,1,0.28|
2,2,6.6|
2,3,4.8|
2,4,6.4|
2,5,4.1|
2,6,2.6|
2,7,2.6|
3,0,5.1|
3,1,5.6|
3,2,3.6|
3,3,1.2|
3,4,6.1|
3,5,0.26|
3,6,3.8|
3,7,1.4|
4,0,4.9|
4,1,1.9|
4,2,7.5|
4,3,5|
4,4,2.6|
4,5,8.2|
4,6,1.2|
4,7,5.6|
5,0,6.8|
5,1,2.3|
5,2,4.7|
5,3,1.2|
5,4,8|
5,5,5|
5,6,0.61|
5,7,2.3|
6,0,1.6|
6,1,9.6|
6,2,0.26|
6,3,8.2|
6,4,0.48|
6,5,1.4|
6,6,5.3|
6,7,0.32|
7,0,6.8|
7,1,6.6|
7,2,1.6|
7,3,7|
7,4,4.4|
7,5,0.95|
7,6,6.7|
7,7,1.9|
];
constraint_x7_x6=[
0,0,1.9|
0,1,0.44|
0,2,1.5|
0,3,7.4|
0,4,3.6|
0,5,4.7|
0,6,1.3|
0,7,2.4|
1,0,6.1|
1,1,1.9|
1,2,3.5|
1,3,0.052|
1,4,2.2|
1,5,9.3|
1,6,3|
1,7,8.9|
2,0,9.3|
2,1,6.4|
2,2,2.4|
2,3,4|
2,4,5.7|
2,5,8.1|
2,6,2.8|
2,7,2.7|
3,0,5.8|
3,1,2.7|
3,2,7|
3,3,8.9|
3,4,3.1|
3,5,4.8|
3,6,8.2|
3,7,3.4|
4,0,5.7|
4,1,8|
4,2,3.7|
4,3,9.7|
4,4,1.4|
4,5,3.5|
4,6,5.3|
4,7,10|
5,0,5.6|
5,1,9|
5,2,4.1|
5,3,7|
5,4,5|
5,5,3.5|
5,6,8.3|
5,7,8.2|
6,0,8.3|
6,1,2.6|
6,2,8.5|
6,3,1.3|
6,4,0.28|
6,5,0.1|
6,6,7.8|
6,7,8.6|
7,0,6.5|
7,1,4.2|
7,2,1.1|
7,3,6.7|
7,4,0.18|
7,5,7.5|
7,6,2.5|
7,7,8.9|
];
constraint_x8_x4=[
0,0,2.9|
0,1,6.3|
0,2,2.2|
0,3,3|
0,4,6.8|
0,5,9|
0,6,1.5|
0,7,3.7|
1,0,9.6|
1,1,7.9|
1,2,1.5|
1,3,2.6|
1,4,1.3|
1,5,1.8|
1,6,6|
1,7,9.8|
2,0,6.2|
2,1,6.1|
2,2,3|
2,3,7.4|
2,4,2.5|
2,5,4.5|
2,6,4|
2,7,5.7|
3,0,1.4|
3,1,5.6|
3,2,0.72|
3,3,6.1|
3,4,9|
3,5,7.2|
3,6,0.82|
3,7,2.8|
4,0,1.1|
4,1,5.1|
4,2,3.3|
4,3,4.3|
4,4,6.9|
4,5,7.9|
4,6,7.4|
4,7,0.36|
5,0,6.3|
5,1,4.7|
5,2,6.4|
5,3,2|
5,4,9.4|
5,5,5.4|
5,6,7.9|
5,7,9.5|
6,0,4.4|
6,1,0.34|
6,2,1.3|
6,3,7.2|
6,4,7.1|
6,5,6.8|
6,6,6.2|
6,7,7.6|
7,0,1.5|
7,1,2.3|
7,2,1.3|
7,3,1.7|
7,4,1.2|
7,5,1.5|
7,6,1.1|
7,7,4.8|
];
constraint_x8_x7=[
0,0,3.7|
0,1,8.6|
0,2,9|
0,3,3.9|
0,4,5|
0,5,4.1|
0,6,2.4|
0,7,6.2|
1,0,8.8|
1,1,5.3|
1,2,5.8|
1,3,0.39|
1,4,9.3|
1,5,4.9|
1,6,6.7|
1,7,6|
2,0,2.9|
2,1,2.9|
2,2,8.1|
2,3,7.6|
2,4,6|
2,5,4|
2,6,7.4|
2,7,8.6|
3,0,2.1|
3,1,3.4|
3,2,8.9|
3,3,3.2|
3,4,1|
3,5,7.2|
3,6,0.57|
3,7,3|
4,0,2.5|
4,1,2.2|
4,2,4.7|
4,3,2.5|
4,4,2.1|
4,5,2.4|
4,6,6.5|
4,7,2.4|
5,0,9.7|
5,1,1.1|
5,2,4.4|
5,3,1.8|
5,4,9.4|
5,5,6.9|
5,6,8.6|
5,7,0.0083|
6,0,3.8|
6,1,0.67|
6,2,0.082|
6,3,4.7|
6,4,6.4|
6,5,7.3|
6,6,2.7|
6,7,1.1|
7,0,8.5|
7,1,6.3|
7,2,5.5|
7,3,0.58|
7,4,6.1|
7,5,5.8|
7,6,5.4|
7,7,3.5|
];
constraint_x9_x5=[
0,0,0.83|
0,1,3.6|
0,2,3.7|
0,3,0.71|
0,4,4|
0,5,3.2|
0,6,8.6|
0,7,7.7|
1,0,4.3|
1,1,8.4|
1,2,2.4|
1,3,2.6|
1,4,7.9|
1,5,8|
1,6,4.9|
1,7,2.1|
2,0,9.6|
2,1,1.7|
2,2,5.6|
2,3,9.2|
2,4,4.8|
2,5,9.5|
2,6,0.32|
2,7,1.8|
3,0,0.12|
3,1,4.1|
3,2,5.1|
3,3,6.7|
3,4,9.4|
3,5,5|
3,6,0.78|
3,7,6.5|
4,0,7.1|
4,1,7.2|
4,2,2.9|
4,3,6.3|
4,4,1.4|
4,5,7.9|
4,6,3.3|
4,7,6.9|
5,0,7.4|
5,1,9.3|
5,2,1.8|
5,3,0.21|
5,4,0.87|
5,5,9.2|
5,6,1.7|
5,7,0.93|
6,0,1.4|
6,1,1|
6,2,0.3|
6,3,4.3|
6,4,4.7|
6,5,1.9|
6,6,8|
6,7,8.4|
7,0,7.8|
7,1,3.1|
7,2,2.4|
7,3,7.7|
7,4,2.5|
7,5,1.5|
7,6,0.089|
7,7,8.1|
];
constraint_x10_x6=[
0,0,4|
0,1,3.9|
0,2,3.4|
0,3,3|
0,4,4.9|
0,5,6.9|
0,6,8.8|
0,7,9.7|
1,0,7.6|
1,1,7.9|
1,2,1.1|
1,3,5.5|
1,4,5.9|
1,5,8.5|
1,6,4.4|
1,7,9.8|
2,0,2.7|
2,1,5|
2,2,3.1|
2,3,6|
2,4,8.6|
2,5,6.3|
2,6,8.3|
2,7,1.3|
3,0,2.6|
3,1,9.2|
3,2,9.2|
3,3,0.5|
3,4,9.1|
3,5,7.5|
3,6,0.95|
3,7,9.8|
4,0,1.5|
4,1,2.9|
4,2,1.5|
4,3,3.9|
4,4,1.1|
4,5,8.6|
4,6,9.6|
4,7,4.3|
5,0,9.3|
5,1,1.7|
5,2,2.6|
5,3,8.7|
5,4,1.6|
5,5,1.5|
5,6,1.2|
5,7,9.8|
6,0,0.09|
6,1,6.8|
6,2,3.2|
6,3,9.8|
6,4,8.4|
6,5,4.2|
6,6,9.5|
6,7,2.7|
7,0,9.5|
7,1,6.8|
7,2,7.1|
7,3,0.0042|
7,4,7.4|
7,5,2.4|
7,6,8.8|
7,7,9.6|
];
constraint_x10_x9=[
0,0,9|
0,1,8.6|
0,2,2.7|
0,3,2|
0,4,2.2|
0,5,9|
0,6,2.8|
0,7,7.4|
1,0,1.2|
1,1,2.4|
1,2,5.1|
1,3,7.1|
1,4,1|
1,5,2.9|
1,6,8.3|
1,7,8.4|
2,0,2.1|
2,1,9.8|
2,2,6.4|
2,3,2.8|
2,4,7.4|
2,5,0.35|
2,6,5.7|
2,7,5.2|
3,0,3.9|
3,1,3|
3,2,0.92|
3,3,3.5|
3,4,8.2|
3,5,9.1|
3,6,1.1|
3,7,1.8|
4,0,9.5|
4,1,9.3|
4,2,6.8|
4,3,1.1|
4,4,4.3|
4,5,1.9|
4,6,4.5|
4,7,9.1|
5,0,9.7|
5,1,1.9|
5,2,9|
5,3,0.48|
5,4,2.4|
5,5,2.1|
5,6,3.2|
5,7,8|
6,0,9|
6,1,4.2|
6,2,6|
6,3,8.7|
6,4,6.2|
6,5,7.6|
6,6,9.2|
6,7,6.5|
7,0,3.4|
7,1,1.4|
7,2,7.4|
7,3,4|
7,4,7.8|
7,5,4.2|
7,6,3.3|
7,7,7.7|
];
constraint_x11_x7=[
0,0,6|
0,1,1.3|
0,2,6.6|
0,3,5.9|
0,4,7.8|
0,5,3.2|
0,6,7.2|
0,7,7|
1,0,9.9|
1,1,9.7|
1,2,0.89|
1,3,0.94|
1,4,9.7|
1,5,9.4|
1,6,6.5|
1,7,4.3|
2,0,0.11|
2,1,2.7|
2,2,7.6|
2,3,8.8|
2,4,3.5|
2,5,3.2|
2,6,4.3|
2,7,2.8|
3,0,2|
3,1,1.9|
3,2,1.4|
3,3,7.4|
3,4,3|
3,5,4.4|
3,6,9.9|
3,7,6.2|
4,0,9.6|
4,1,2.3|
4,2,7.7|
4,3,1.3|
4,4,7.6|
4,5,3.7|
4,6,3.5|
4,7,4.1|
5,0,8.9|
5,1,5.5|
5,2,9.9|
5,3,2.2|
5,4,9.9|
5,5,0.078|
5,6,5.8|
5,7,3.3|
6,0,5|
6,1,0.92|
6,2,4.1|
6,3,3.9|
6,4,7.7|
6,5,6.9|
6,6,5.9|
6,7,4.5|
7,0,2.8|
7,1,7.3|
7,2,3.9|
7,3,1.9|
7,4,5.3|
7,5,0.83|
7,6,9.2|
7,7,10|
];
constraint_x11_x10=[
0,0,7.3|
0,1,4.8|
0,2,4.2|
0,3,9.3|
0,4,7.4|
0,5,4.4|
0,6,1.9|
0,7,2.2|
1,0,6|
1,1,8.4|
1,2,7.1|
1,3,3.6|
1,4,3.8|
1,5,7.2|
1,6,9.9|
1,7,0.69|
2,0,7|
2,1,1.1|
2,2,7.5|
2,3,0.14|
2,4,9.6|
2,5,4.3|
2,6,9.7|
2,7,6.4|
3,0,6.3|
3,1,0.26|
3,2,4|
3,3,2|
3,4,2.6|
3,5,6.8|
3,6,8.8|
3,7,3.1|
4,0,0.27|
4,1,9.1|
4,2,7.7|
4,3,1.5|
4,4,5|
4,5,9.5|
4,6,4.8|
4,7,7.6|
5,0,9|
5,1,8.1|
5,2,3.9|
5,3,8.5|
5,4,7.5|
5,5,6.3|
5,6,8.4|
5,7,8.3|
6,0,0.2|
6,1,3.2|
6,2,6.4|
6,3,7.9|
6,4,7.6|
6,5,2.6|
6,6,1.4|
6,7,0.17|
7,0,9.5|
7,1,1.3|
7,2,3.4|
7,3,7.4|
7,4,3.5|
7,5,5.1|
7,6,1.6|
7,7,5.2|
];
constraint_x12_x8=[
0,0,2.2|
0,1,5.2|
0,2,7.2|
0,3,3.8|
0,4,9.4|
0,5,0.19|
0,6,3.5|
0,7,5|
1,0,1.3|
1,1,9.6|
1,2,2.6|
1,3,9.6|
1,4,9.4|
1,5,5.5|
1,6,6.5|
1,7,4.5|
2,0,9.6|
2,1,8.9|
2,2,0.63|
2,3,9.1|
2,4,9.5|
2,5,9.8|
2,6,2.2|
2,7,8.5|
3,0,8.9|
3,1,1.4|
3,2,4.5|
3,3,6.1|
3,4,2.1|
3,5,0.54|
3,6,3.4|
3,7,6.8|
4,0,1|
4,1,8.3|
4,2,1.1|
4,3,1.2|
4,4,4.9|
4,5,4.4|
4,6,6.2|
4,7,6|
5,0,3.8|
5,1,6.1|
5,2,6.9|
5,3,3.5|
5,4,9.1|
5,5,0.83|
5,6,9.1|
5,7,2.4|
6,0,4.4|
6,1,1.2|
6,2,5.6|
6,3,1.2|
6,4,2.9|
6,5,5.9|
6,6,9.8|
6,7,0.11|
7,0,9.2|
7,1,6.5|
7,2,1.6|
7,3,7.2|
7,4,3.7|
7,5,3.8|
7,6,5.1|
7,7,6.4|
];
constraint_x12_x11=[
0,0,7.7|
0,1,9.9|
0,2,5.9|
0,3,6.5|
0,4,2.5|
0,5,8.7|
0,6,1.8|
0,7,6.9|
1,0,6.6|
1,1,3.1|
1,2,8.8|
1,3,5.6|
1,4,5.6|
1,5,6|
1,6,2.3|
1,7,0.63|
2,0,3.3|
2,1,8.9|
2,2,3.9|
2,3,0.86|
2,4,4.7|
2,5,0.19|
2,6,1.4|
2,7,0.58|
3,0,3.7|
3,1,4.9|
3,2,4.6|
3,3,3.8|
3,4,5.5|
3,5,2.9|
3,6,9.5|
3,7,7.7|
4,0,3.5|
4,1,1.8|
4,2,4.7|
4,3,9.7|
4,4,1|
4,5,8.3|
4,6,7.1|
4,7,9|
5,0,0.87|
5,1,3.5|
5,2,5.7|
5,3,5.5|
5,4,2.8|
5,5,3.5|
5,6,2.7|
5,7,9.7|
6,0,6.7|
6,1,3.4|
6,2,7.1|
6,3,0.36|
6,4,8.6|
6,5,7.9|
6,6,5.9|
6,7,1|
7,0,8.9|
7,1,2.7|
7,2,9.2|
7,3,1.3|
7,4,0.67|
7,5,3.7|
7,6,7.6|
7,7,4.7|
];
constraint_x13_x9=[
0,0,5.8|
0,1,3.7|
0,2,6.7|
0,3,0.13|
0,4,5.7|
0,5,8.5|
0,6,5.9|
0,7,4.3|
1,0,8.9|
1,1,5.3|
1,2,5.5|
1,3,9.9|
1,4,0.88|
1,5,9.2|
1,6,9.7|
1,7,0.6|
2,0,8.5|
2,1,4.2|
2,2,9.3|
2,3,8.8|
2,4,9.4|
2,5,4.4|
2,6,4.6|
2,7,8.8|
3,0,7.4|
3,1,0.24|
3,2,0.5|
3,3,8.2|
3,4,9.7|
3,5,8.5|
3,6,7.5|
3,7,9.6|
4,0,6.2|
4,1,2.5|
4,2,9.2|
4,3,8.8|
4,4,7.2|
4,5,2.4|
4,6,1.7|
4,7,7.9|
5,0,3.9|
5,1,3.3|
5,2,8.6|
5,3,6.8|
5,4,9.9|
5,5,6.6|
5,6,4.5|
5,7,6.1|
6,0,7.6|
6,1,4.9|
6,2,9.1|
6,3,8.1|
6,4,9|
6,5,7.5|
6,6,6.3|
6,7,8.5|
7,0,1.6|
7,1,4.8|
7,2,7.4|
7,3,3.5|
7,4,1.3|
7,5,8.7|
7,6,7.6|
7,7,3.3|
];
constraint_x14_x10=[
0,0,8.3|
0,1,4.8|
0,2,4.9|
0,3,3.3|
0,4,7.4|
0,5,1|
0,6,8.8|
0,7,9.5|
1,0,1.2|
1,1,7.5|
1,2,3.8|
1,3,9.4|
1,4,8.2|
1,5,3.1|
1,6,7.3|
1,7,8.8|
2,0,2.3|
2,1,8.2|
2,2,1.2|
2,3,5.1|
2,4,4.9|
2,5,0.43|
2,6,0.69|
2,7,0.28|
3,0,7.2|
3,1,5.8|
3,2,3|
3,3,1.7|
3,4,7.1|
3,5,4.7|
3,6,2.8|
3,7,0.42|
4,0,5.7|
4,1,9|
4,2,2.9|
4,3,3|
4,4,8|
4,5,8.7|
4,6,5|
4,7,4|
5,0,9.4|
5,1,3.5|
5,2,5.5|
5,3,4.2|
5,4,8.9|
5,5,7.9|
5,6,1.1|
5,7,7.2|
6,0,5.1|
6,1,7.9|
6,2,6.5|
6,3,9.8|
6,4,1.4|
6,5,8.1|
6,6,5.8|
6,7,3.6|
7,0,0.2|
7,1,1.1|
7,2,1.5|
7,3,0.35|
7,4,3.9|
7,5,0.49|
7,6,6.6|
7,7,0.27|
];
constraint_x14_x13=[
0,0,2.1|
0,1,6.8|
0,2,9.2|
0,3,3.3|
0,4,1.6|
0,5,2.8|
0,6,4.6|
0,7,1.3|
1,0,7.1|
1,1,4|
1,2,8.2|
1,3,8.4|
1,4,4.8|
1,5,4.4|
1,6,9.1|
1,7,3.1|
2,0,8.9|
2,1,7.5|
2,2,10|
2,3,7|
2,4,3.6|
2,5,8.2|
2,6,6.1|
2,7,7.3|
3,0,4.7|
3,1,0.62|
3,2,2.7|
3,3,5|
3,4,6.2|
3,5,2.7|
3,6,2.8|
3,7,3|
4,0,3.2|
4,1,2.2|
4,2,7.2|
4,3,8.3|
4,4,2.7|
4,5,9.1|
4,6,6.4|
4,7,6.8|
5,0,0.067|
5,1,4.4|
5,2,2.1|
5,3,3.7|
5,4,6.2|
5,5,3.5|
5,6,9.8|
5,7,7.1|
6,0,5.1|
6,1,2.2|
6,2,5.6|
6,3,6.4|
6,4,8.5|
6,5,1.3|
6,6,9.7|
6,7,5.3|
7,0,7.8|
7,1,7.8|
7,2,2.1|
7,3,2.5|
7,4,7.7|
7,5,8.1|
7,6,3.6|
7,7,3.7|
];
constraint_x15_x11=[
0,0,6|
0,1,5.9|
0,2,7.1|
0,3,3.9|
0,4,5.6|
0,5,6.7|
0,6,1.2|
0,7,7.4|
1,0,6.3|
1,1,4.9|
1,2,9.7|
1,3,9.2|
1,4,0.8|
1,5,6.9|
1,6,1.2|
1,7,2|
2,0,6.5|
2,1,0.35|
2,2,7.7|
2,3,9.8|
2,4,6.3|
2,5,1.7|
2,6,7.4|
2,7,1.4|
3,0,6.4|
3,1,0.27|
3,2,3.2|
3,3,4.4|
3,4,6.2|
3,5,0.56|
3,6,2.9|
3,7,3|
4,0,6.6|
4,1,6.8|
4,2,3.5|
4,3,2.1|
4,4,8|
4,5,2.1|
4,6,7.6|
4,7,4.6|
5,0,4.4|
5,1,1|
5,2,3.5|
5,3,5.2|
5,4,2.1|
5,5,5|
5,6,9|
5,7,6.5|
6,0,3.5|
6,1,4.1|
6,2,8.3|
6,3,9|
6,4,4.9|
6,5,6.3|
6,6,5|
6,7,0.21|
7,0,3.6|
7,1,8.9|
7,2,7.7|
7,3,8.6|
7,4,9|
7,5,7.6|
7,6,0.58|
7,7,8.9|
];
constraint_x15_x14=[
0,0,2.1|
0,1,3|
0,2,0.24|
0,3,5.4|
0,4,2.2|
0,5,3.3|
0,6,1.8|
0,7,1.6|
1,0,6.8|
1,1,3.2|
1,2,6.1|
1,3,0.69|
1,4,6.1|
1,5,9.4|
1,6,2.5|
1,7,9.7|
2,0,4|
2,1,8|
2,2,8.5|
2,3,8.3|
2,4,1.4|
2,5,5.2|
2,6,8.4|
2,7,8.7|
3,0,2.5|
3,1,1.4|
3,2,9|
3,3,7.1|
3,4,9.7|
3,5,9.3|
3,6,0.64|
3,7,4.7|
4,0,8.4|
4,1,0.95|
4,2,7.4|
4,3,8.6|
4,4,7.5|
4,5,8.1|
4,6,8.1|
4,7,9.6|
5,0,6.4|
5,1,2.1|
5,2,6.9|
5,3,4.2|
5,4,9.2|
5,5,1.7|
5,6,3.4|
5,7,3.2|
6,0,7|
6,1,4.7|
6,2,0.8|
6,3,5.1|
6,4,6.7|
6,5,6.5|
6,6,0.97|
6,7,6|
7,0,7.8|
7,1,2.7|
7,2,8.1|
7,3,6.7|
7,4,2.2|
7,5,9.1|
7,6,8.8|
7,7,8.9|
];
constraint_x16_x12=[
0,0,1.8|
0,1,1.3|
0,2,0.23|
0,3,3.4|
0,4,2.9|
0,5,1.4|
0,6,4.1|
0,7,8.1|
1,0,6.7|
1,1,1.1|
1,2,8|
1,3,5.5|
1,4,1.8|
1,5,0.93|
1,6,9.9|
1,7,0.038|
2,0,4.4|
2,1,6.1|
2,2,2.2|
2,3,2.4|
2,4,1.3|
2,5,7|
2,6,4.8|
2,7,6.2|
3,0,3.9|
3,1,8.2|
3,2,3.6|
3,3,5|
3,4,6.3|
3,5,9|
3,6,6.5|
3,7,5.7|
4,0,6.9|
4,1,4.1|
4,2,6.9|
4,3,4.3|
4,4,6|
4,5,0.5|
4,6,8.6|
4,7,1.9|
5,0,0.24|
5,1,3.5|
5,2,0.67|
5,3,5.2|
5,4,4.5|
5,5,4.8|
5,6,8.7|
5,7,2.2|
6,0,1.6|
6,1,0.47|
6,2,7.8|
6,3,0.61|
6,4,0.24|
6,5,1.6|
6,6,3.4|
6,7,5|
7,0,5.8|
7,1,0.79|
7,2,3.6|
7,3,4.7|
7,4,4.4|
7,5,6.2|
7,6,5.3|
7,7,4.4|
];
constraint_x16_x15=[
0,0,7.4|
0,1,5.6|
0,2,9|
0,3,4.1|
0,4,3.8|
0,5,9.2|
0,6,8.5|
0,7,3.9|
1,0,6.4|
1,1,2.1|
1,2,2.4|
1,3,0.99|
1,4,6.1|
1,5,9|
1,6,2.2|
1,7,2.9|
2,0,1.6|
2,1,3|
2,2,6.1|
2,3,1.9|
2,4,9.6|
2,5,6.4|
2,6,7.7|
2,7,7.7|
3,0,2.1|
3,1,10|
3,2,7.3|
3,3,8.2|
3,4,0.053|
3,5,5|
3,6,5|
3,7,4.7|
4,0,8.6|
4,1,6.4|
4,2,2.6|
4,3,2.5|
4,4,4|
4,5,7.7|
4,6,5.9|
4,7,1.9|
5,0,6.2|
5,1,1.6|
5,2,5|
5,3,9.9|
5,4,7.1|
5,5,9.6|
5,6,0.14|
5,7,7.1|
6,0,8.8|
6,1,7.1|
6,2,8.9|
6,3,2.8|
6,4,0.25|
6,5,6.5|
6,6,5.2|
6,7,0.58|
7,0,5.2|
7,1,9.4|
7,2,8.3|
7,3,1.2|
7,4,7.2|
7,5,6.7|
7,6,3.9|
7,7,4.6|
];
constraint_x17_x13=[
0,0,3|
0,1,5.9|
0,2,6.9|
0,3,2.2|
0,4,2.7|
0,5,0.06|
0,6,3.8|
0,7,4.3|
1,0,9.6|
1,1,6.9|
1,2,7|
1,3,5.4|
1,4,3.3|
1,5,9.7|
1,6,5.1|
1,7,2.7|
2,0,3.2|
2,1,8.2|
2,2,5.6|
2,3,2.8|
2,4,3.2|
2,5,1.5|
2,6,3.1|
2,7,2.8|
3,0,8|
3,1,7.3|
3,2,1.7|
3,3,1.4|
3,4,7.9|
3,5,1.1|
3,6,0.56|
3,7,0.09|
4,0,4.4|
4,1,7.4|
4,2,2.2|
4,3,8.3|
4,4,5.5|
4,5,3.2|
4,6,2.8|
4,7,0.87|
5,0,9|
5,1,8|
5,2,8.2|
5,3,4.8|
5,4,7.9|
5,5,6.8|
5,6,2.6|
5,7,3.4|
6,0,5.8|
6,1,0.42|
6,2,0.45|
6,3,6.6|
6,4,9.4|
6,5,3.1|
6,6,2.6|
6,7,7|
7,0,5.3|
7,1,4.8|
7,2,1.2|
7,3,9.9|
7,4,8.6|
7,5,8|
7,6,3.2|
7,7,1.4|
];
constraint_x18_x14=[
0,0,6.8|
0,1,7.2|
0,2,4.5|
0,3,8.3|
0,4,8|
0,5,7.4|
0,6,1.1|
0,7,7.7|
1,0,0.25|
1,1,3.5|
1,2,0.77|
1,3,7.5|
1,4,1.5|
1,5,0.68|
1,6,8.8|
1,7,2.8|
2,0,3.3|
2,1,9.2|
2,2,2.2|
2,3,3|
2,4,4.1|
2,5,3.6|
2,6,5.5|
2,7,9.3|
3,0,6.7|
3,1,4.5|
3,2,7.6|
3,3,0.57|
3,4,8.6|
3,5,9.3|
3,6,3.6|
3,7,3.4|
4,0,3.9|
4,1,6.5|
4,2,0.3|
4,3,0.89|
4,4,8.8|
4,5,8.6|
4,6,4.9|
4,7,9.2|
5,0,9|
5,1,8.4|
5,2,6.4|
5,3,8.5|
5,4,0.22|
5,5,7.7|
5,6,4.6|
5,7,6.1|
6,0,7.8|
6,1,3.6|
6,2,5.8|
6,3,7.8|
6,4,5.9|
6,5,4.5|
6,6,6.9|
6,7,7.3|
7,0,5.2|
7,1,9.1|
7,2,3.6|
7,3,7.3|
7,4,0.88|
7,5,1.3|
7,6,4.5|
7,7,8.5|
];
constraint_x18_x17=[
0,0,9.9|
0,1,8.2|
0,2,1.1|
0,3,5.4|
0,4,3.7|
0,5,6.5|
0,6,7.8|
0,7,8.8|
1,0,1.9|
1,1,2.6|
1,2,3.7|
1,3,4.9|
1,4,5.9|
1,5,3.1|
1,6,0.3|
1,7,9.2|
2,0,7.7|
2,1,1.4|
2,2,9.4|
2,3,0.14|
2,4,8.2|
2,5,2.7|
2,6,7|
2,7,4.3|
3,0,7.7|
3,1,6.4|
3,2,2.5|
3,3,7.5|
3,4,0.65|
3,5,9.3|
3,6,6.8|
3,7,1.9|
4,0,9.2|
4,1,6.4|
4,2,1.3|
4,3,0.64|
4,4,9.3|
4,5,9.4|
4,6,7.7|
4,7,6.7|
5,0,2.9|
5,1,9.7|
5,2,2.8|
5,3,8.9|
5,4,2.2|
5,5,1.4|
5,6,0.99|
5,7,6.8|
6,0,9.1|
6,1,4.4|
6,2,2.7|
6,3,4.8|
6,4,2.4|
6,5,9.6|
6,6,4.6|
6,7,9.2|
7,0,8.1|
7,1,9.9|
7,2,6.1|
7,3,3.3|
7,4,1.4|
7,5,5.3|
7,6,4.7|
7,7,9.7|
];
constraint_x19_x15=[
0,0,9.9|
0,1,6.3|
0,2,3.1|
0,3,3.6|
0,4,2.5|
0,5,9.5|
0,6,7.3|
0,7,8.5|
1,0,6.3|
1,1,8.3|
1,2,1.8|
1,3,0.81|
1,4,4.8|
1,5,1.5|
1,6,7.2|
1,7,1.2|
2,0,0.4|
2,1,2.6|
2,2,4.9|
2,3,2.3|
2,4,5|
2,5,9.4|
2,6,7.6|
2,7,0.14|
3,0,7|
3,1,9|
3,2,4.9|
3,3,9.7|
3,4,6.1|
3,5,1.7|
3,6,1.5|
3,7,7.6|
4,0,7.9|
4,1,3.9|
4,2,5.2|
4,3,6.3|
4,4,2.4|
4,5,1.3|
4,6,1.5|
4,7,2.4|
5,0,3.8|
5,1,2.4|
5,2,8.5|
5,3,9.7|
5,4,9.8|
5,5,2.8|
5,6,8.2|
5,7,4|
6,0,2.5|
6,1,0.053|
6,2,8.8|
6,3,2.9|
6,4,9.3|
6,5,7.3|
6,6,0.14|
6,7,0.42|
7,0,1.1|
7,1,2.2|
7,2,2.5|
7,3,4.7|
7,4,0.48|
7,5,1.5|
7,6,8.1|
7,7,3.7|
];
constraint_x19_x18=[
0,0,2.5|
0,1,8.9|
0,2,6.5|
0,3,5.9|
0,4,7.8|
0,5,3.1|
0,6,2|
0,7,3.2|
1,0,3.1|
1,1,5|
1,2,8.4|
1,3,5.5|
1,4,7.6|
1,5,0.54|
1,6,6.8|
1,7,8.4|
2,0,8.9|
2,1,6.6|
2,2,0.53|
2,3,5.8|
2,4,8.1|
2,5,3.3|
2,6,1.2|
2,7,1.8|
3,0,1.6|
3,1,2|
3,2,9.1|
3,3,7.3|
3,4,0.42|
3,5,8|
3,6,5.3|
3,7,1.9|
4,0,5.8|
4,1,2.6|
4,2,9.2|
4,3,5.9|
4,4,8.1|
4,5,5.7|
4,6,1.5|
4,7,7.6|
5,0,3.7|
5,1,5.6|
5,2,7.2|
5,3,9|
5,4,2.8|
5,5,6.7|
5,6,2.6|
5,7,9.6|
6,0,9.5|
6,1,9.2|
6,2,2.8|
6,3,4.4|
6,4,3.7|
6,5,0.75|
6,6,3.3|
6,7,7.7|
7,0,6.5|
7,1,4.6|
7,2,0.34|
7,3,5.9|
7,4,7.7|
7,5,0.3|
7,6,2.5|
7,7,0.23|
];
constraint_x20_x16=[
0,0,6.6|
0,1,7.9|
0,2,2.4|
0,3,5.2|
0,4,4.5|
0,5,7.1|
0,6,2.1|
0,7,2.5|
1,0,5.6|
1,1,0.5|
1,2,3.1|
1,3,4.8|
1,4,5.2|
1,5,0.4|
1,6,6.1|
1,7,9.1|
2,0,1.5|
2,1,5.2|
2,2,3.3|
2,3,8.3|
2,4,1.3|
2,5,7.3|
2,6,2.2|
2,7,5.6|
3,0,6.5|
3,1,3.5|
3,2,9.1|
3,3,9.6|
3,4,5.5|
3,5,9.3|
3,6,1.9|
3,7,1.7|
4,0,8.3|
4,1,0.46|
4,2,2.8|
4,3,5.9|
4,4,5|
4,5,5.2|
4,6,4.4|
4,7,3.5|
5,0,3.9|
5,1,7.5|
5,2,4.2|
5,3,9.8|
5,4,7.8|
5,5,9|
5,6,2.5|
5,7,9.1|
6,0,7.6|
6,1,6.3|
6,2,6.4|
6,3,0.59|
6,4,8.4|
6,5,5|
6,6,4|
6,7,2.8|
7,0,4.8|
7,1,6.4|
7,2,2.9|
7,3,9.3|
7,4,2|
7,5,7.5|
7,6,8.4|
7,7,3.6|
];
constraint_x20_x19=[
0,0,4.8|
0,1,2.7|
0,2,6.3|
0,3,6.7|
0,4,6.1|
0,5,4.2|
0,6,9|
0,7,9.8|
1,0,7.3|
1,1,2.7|
1,2,5.2|
1,3,2.6|
1,4,7.1|
1,5,7.9|
1,6,5.4|
1,7,1|
2,0,4.4|
2,1,2.8|
2,2,5|
2,3,1.9|
2,4,4.6|
2,5,3.2|
2,6,8.8|
2,7,2.5|
3,0,4|
3,1,8.4|
3,2,6.7|
3,3,7.6|
3,4,6.2|
3,5,5.2|
3,6,8.1|
3,7,5.2|
4,0,9.2|
4,1,0.26|
4,2,5.6|
4,3,7.1|
4,4,1.2|
4,5,6.9|
4,6,6.8|
4,7,5.6|
5,0,9.9|
5,1,6.8|
5,2,8.6|
5,3,5.8|
5,4,6.2|
5,5,7.4|
5,6,0.19|
5,7,3.3|
6,0,6.8|
6,1,2.7|
6,2,5.5|
6,3,8.5|
6,4,7.4|
6,5,5|
6,6,2|
6,7,4|
7,0,2|
7,1,4.4|
7,2,8.1|
7,3,7.5|
7,4,1.7|
7,5,3|
7,6,6.2|
7,7,6.4|
];
constraint_x1_y1=[
0,0,3|
0,1,2.4|
0,2,2.9|
0,3,5.2|
0,4,8.1|
0,5,2.4|
0,6,8.5|
0,7,8.7|
1,0,3.5|
1,1,5.6|
1,2,1.3|
1,3,1.3|
1,4,6.5|
1,5,1.9|
1,6,8.7|
1,7,5.1|
2,0,1.1|
2,1,2|
2,2,9|
2,3,3.9|
2,4,5.4|
2,5,5.9|
2,6,6|
2,7,1.9|
3,0,1.2|
3,1,5.2|
3,2,2.4|
3,3,4.7|
3,4,8.6|
3,5,1.5|
3,6,8.4|
3,7,5.1|
4,0,5.6|
4,1,1.3|
4,2,0.01|
4,3,6.3|
4,4,8.6|
4,5,0.045|
4,6,6|
4,7,3.7|
5,0,3.9|
5,1,4.9|
5,2,7.2|
5,3,9.5|
5,4,0.43|
5,5,6.5|
5,6,9.7|
5,7,7.7|
6,0,1.3|
6,1,4.3|
6,2,2.1|
6,3,2.9|
6,4,6|
6,5,6.7|
6,6,3.6|
6,7,4.8|
7,0,3.3|
7,1,3.8|
7,2,3.8|
7,3,1.4|
7,4,0.19|
7,5,0.83|
7,6,3.9|
7,7,4.2|
];
constraint_x2_y2=[
0,0,9.8|
0,1,1.5|
0,2,3.7|
0,3,2.4|
0,4,9.3|
0,5,0.86|
0,6,0.32|
0,7,1.2|
1,0,5.8|
1,1,4|
1,2,5|
1,3,6.1|
1,4,8.6|
1,5,0.75|
1,6,2.5|
1,7,3.5|
2,0,1.5|
2,1,0.24|
2,2,6.3|
2,3,9.9|
2,4,3.4|
2,5,1.7|
2,6,3.5|
2,7,6.1|
3,0,3.9|
3,1,7.8|
3,2,5.1|
3,3,3.4|
3,4,2.2|
3,5,0.65|
3,6,9.2|
3,7,8.8|
4,0,0.61|
4,1,6.4|
4,2,2.9|
4,3,3.3|
4,4,3.1|
4,5,9.4|
4,6,1.9|
4,7,8.3|
5,0,9.2|
5,1,7.5|
5,2,8.4|
5,3,2.1|
5,4,8.3|
5,5,5.9|
5,6,2.8|
5,7,8.8|
6,0,4.7|
6,1,2.1|
6,2,9.8|
6,3,1.5|
6,4,1.8|
6,5,6.6|
6,6,7|
6,7,0.63|
7,0,4.8|
7,1,0.82|
7,2,3.9|
7,3,4.9|
7,4,4.1|
7,5,0.61|
7,6,6.4|
7,7,9.1|
];
constraint_x3_y3=[
0,0,2.9|
0,1,1.8|
0,2,9.9|
0,3,8.6|
0,4,0.95|
0,5,5.8|
0,6,1.8|
0,7,2.1|
1,0,9.6|
1,1,7.8|
1,2,9.9|
1,3,5.3|
1,4,9.7|
1,5,9.3|
1,6,6.9|
1,7,9.3|
2,0,0.48|
2,1,7.3|
2,2,0.72|
2,3,0.37|
2,4,1.8|
2,5,6.2|
2,6,2.9|
2,7,3.4|
3,0,4.9|
3,1,6.8|
3,2,1.7|
3,3,6.2|
3,4,8.2|
3,5,3.6|
3,6,4.7|
3,7,7.2|
4,0,7|
4,1,4.1|
4,2,6.1|
4,3,8.6|
4,4,4.3|
4,5,7|
4,6,4.4|
4,7,3.2|
5,0,6.5|
5,1,5.2|
5,2,9.4|
5,3,7.3|
5,4,8.8|
5,5,9.5|
5,6,2.8|
5,7,1.8|
6,0,9.8|
6,1,8.4|
6,2,7.4|
6,3,5.5|
6,4,6|
6,5,8.5|
6,6,6.1|
6,7,7.4|
7,0,1.7|
7,1,4.9|
7,2,8.6|
7,3,7.8|
7,4,8|
7,5,1.8|
7,6,1.1|
7,7,0.83|
];
constraint_x4_y4=[
0,0,7.4|
0,1,9|
0,2,7.5|
0,3,9.8|
0,4,7.7|
0,5,9.2|
0,6,9|
0,7,7.6|
1,0,10|
1,1,5.9|
1,2,4.6|
1,3,3.6|
1,4,8.4|
1,5,9.9|
1,6,2.3|
1,7,2|
2,0,3.6|
2,1,8.4|
2,2,9.1|
2,3,2.2|
2,4,2.1|
2,5,8.4|
2,6,3.9|
2,7,9.6|
3,0,7.9|
3,1,3.8|
3,2,2.3|
3,3,1.7|
3,4,9.2|
3,5,6.1|
3,6,1.9|
3,7,0.48|
4,0,3.9|
4,1,1.4|
4,2,6.5|
4,3,3.7|
4,4,6.2|
4,5,8.6|
4,6,6.1|
4,7,3.4|
5,0,2|
5,1,7.8|
5,2,7|
5,3,1.7|
5,4,8.7|
5,5,6.2|
5,6,0.47|
5,7,8|
6,0,0.16|
6,1,2.7|
6,2,4.4|
6,3,2.7|
6,4,9.2|
6,5,3.4|
6,6,2.2|
6,7,8.4|
7,0,7.1|
7,1,8.2|
7,2,7.9|
7,3,2|
7,4,1.3|
7,5,4.6|
7,6,1|
7,7,7.6|
];
constraint_x5_y5=[
0,0,8.9|
0,1,8.3|
0,2,0.069|
0,3,7.4|
0,4,3.2|
0,5,9.1|
0,6,2.2|
0,7,4.8|
1,0,2.1|
1,1,7.4|
1,2,1.3|
1,3,2.8|
1,4,1.9|
1,5,4.6|
1,6,0.38|
1,7,6.8|
2,0,2.4|
2,1,6.9|
2,2,7.7|
2,3,6.5|
2,4,5.4|
2,5,8|
2,6,3|
2,7,0.2|
3,0,2.5|
3,1,4.6|
3,2,4.2|
3,3,0.26|
3,4,6.9|
3,5,4.4|
3,6,7.6|
3,7,3.1|
4,0,5.2|
4,1,5.7|
4,2,2.5|
4,3,4.2|
4,4,1.3|
4,5,9.9|
4,6,2.8|
4,7,6.5|
5,0,1.9|
5,1,0.28|
5,2,7.8|
5,3,1.9|
5,4,3.6|
5,5,6.2|
5,6,4.3|
5,7,5|
6,0,7.5|
6,1,9.4|
6,2,3.3|
6,3,1.4|
6,4,9.4|
6,5,9.2|
6,6,0.86|
6,7,9.6|
7,0,0.39|
7,1,9.1|
7,2,4.3|
7,3,8.6|
7,4,1.4|
7,5,7.2|
7,6,8.4|
7,7,6.4|
];
constraint_x6_y6=[
0,0,5.6|
0,1,2.4|
0,2,6|
0,3,3.8|
0,4,5.5|
0,5,4.7|
0,6,3.3|
0,7,3.3|
1,0,5.4|
1,1,5.4|
1,2,8.1|
1,3,0.65|
1,4,1.4|
1,5,4.9|
1,6,7.1|
1,7,4.7|
2,0,7.9|
2,1,7.2|
2,2,4.4|
2,3,7.1|
2,4,2.7|
2,5,2.9|
2,6,0.55|
2,7,5.7|
3,0,1.8|
3,1,4.6|
3,2,3|
3,3,7|
3,4,9|
3,5,7.8|
3,6,4.4|
3,7,5.8|
4,0,9|
4,1,8.4|
4,2,5.3|
4,3,6|
4,4,2.6|
4,5,0.32|
4,6,6.9|
4,7,3.2|
5,0,9.7|
5,1,6.7|
5,2,1.6|
5,3,1.8|
5,4,4.2|
5,5,8.9|
5,6,1.6|
5,7,6.6|
6,0,5.6|
6,1,7.1|
6,2,2.4|
6,3,1.1|
6,4,1|
6,5,7.6|
6,6,3.8|
6,7,5.5|
7,0,4.3|
7,1,3.2|
7,2,2.2|
7,3,0.18|
7,4,4.8|
7,5,1.7|
7,6,1.6|
7,7,6.5|
];
constraint_x7_y7=[
0,0,7.1|
0,1,6.7|
0,2,9.8|
0,3,2.4|
0,4,9.5|
0,5,7.6|
0,6,9.9|
0,7,0.54|
1,0,7.3|
1,1,1.5|
1,2,7.4|
1,3,1.7|
1,4,4.3|
1,5,0.27|
1,6,5.2|
1,7,7|
2,0,2.3|
2,1,4.4|
2,2,9.6|
2,3,0.25|
2,4,9.6|
2,5,5.8|
2,6,3.6|
2,7,9.5|
3,0,1.5|
3,1,5.3|
3,2,0.82|
3,3,8.6|
3,4,3.7|
3,5,5.8|
3,6,2.3|
3,7,9.6|
4,0,1.8|
4,1,8.1|
4,2,7.7|
4,3,1.6|
4,4,2.3|
4,5,3.5|
4,6,1.1|
4,7,4.8|
5,0,5.3|
5,1,0.73|
5,2,8.4|
5,3,0.054|
5,4,3.7|
5,5,6.4|
5,6,8.9|
5,7,0.78|
6,0,5.9|
6,1,5.9|
6,2,2.4|
6,3,6.2|
6,4,0.33|
6,5,4.9|
6,6,7.6|
6,7,6.6|
7,0,1.1|
7,1,2.5|
7,2,7.7|
7,3,7.7|
7,4,3.6|
7,5,7|
7,6,9|
7,7,3.2|
];
constraint_x8_y8=[
0,0,2.9|
0,1,8.3|
0,2,7.6|
0,3,3.5|
0,4,0.37|
0,5,9.7|
0,6,3|
0,7,1.6|
1,0,6.4|
1,1,0.69|
1,2,4.3|
1,3,4|
1,4,1.4|
1,5,6.1|
1,6,5.3|
1,7,3.3|
2,0,3.8|
2,1,0.15|
2,2,0.94|
2,3,6|
2,4,0.72|
2,5,6|
2,6,3.9|
2,7,5.2|
3,0,4.8|
3,1,6.9|
3,2,3.6|
3,3,6.9|
3,4,8.1|
3,5,0.056|
3,6,5.8|
3,7,5.5|
4,0,7.9|
4,1,0.67|
4,2,8.5|
4,3,4|
4,4,4.8|
4,5,8.4|
4,6,8.1|
4,7,5.1|
5,0,6.2|
5,1,5.8|
5,2,0.93|
5,3,2|
5,4,6.5|
5,5,2.3|
5,6,1.5|
5,7,2|
6,0,8.6|
6,1,1.1|
6,2,8.2|
6,3,1.1|
6,4,8.1|
6,5,8.8|
6,6,0.61|
6,7,9.6|
7,0,6.7|
7,1,5.3|
7,2,1.3|
7,3,9.7|
7,4,0.28|
7,5,9.7|
7,6,2|
7,7,4.8|
];
constraint_x9_y9=[
0,0,2.8|
0,1,1.8|
0,2,7.9|
0,3,2.5|
0,4,7.1|
0,5,2.2|
0,6,6.6|
0,7,2.2|
1,0,4.2|
1,1,4.6|
1,2,6.5|
1,3,1|
1,4,7.3|
1,5,2.9|
1,6,3.4|
1,7,4.7|
2,0,2.8|
2,1,9.7|
2,2,6.3|
2,3,10|
2,4,2.9|
2,5,9.7|
2,6,1|
2,7,4.5|
3,0,1.6|
3,1,6.3|
3,2,1.7|
3,3,4.9|
3,4,4.1|
3,5,9.8|
3,6,6|
3,7,9.6|
4,0,6.4|
4,1,4.6|
4,2,8.4|
4,3,2.8|
4,4,4.8|
4,5,9|
4,6,8.9|
4,7,3.2|
5,0,9.4|
5,1,8.8|
5,2,8.8|
5,3,1.9|
5,4,5.3|
5,5,4.6|
5,6,5.3|
5,7,7.3|
6,0,2.7|
6,1,7.9|
6,2,9|
6,3,3.2|
6,4,8.4|
6,5,3.2|
6,6,6.6|
6,7,6.1|
7,0,3.3|
7,1,3.4|
7,2,8.9|
7,3,8|
7,4,0.56|
7,5,2.1|
7,6,9.5|
7,7,8.6|
];
initial_distribution_y1=[0.088,0.13,0.12,0.029,0.15,0.21,0.25,0.037];
initial_distribution_y2=[0.1,0.054,0.047,0.19,0.21,0.059,0.099,0.24];
initial_distribution_y3=[0.19,0.21,0.044,0.057,0.14,0.14,0.09,0.13];
initial_distribution_y4=[0.076,0.13,0.18,0.21,0.19,0.029,0.11,0.091];
initial_distribution_y5=[0.12,0.019,0.21,0.023,0.19,0.073,0.25,0.11];
initial_distribution_y6=[0.21,0.064,0.24,0.026,0.075,0.05,0.14,0.19];
initial_distribution_y7=[0.054,0.18,0.15,0.15,0.16,0.012,0.18,0.12];
initial_distribution_y8=[0.052,0.19,0.12,0.21,0.13,0.1,0.12,0.064];
initial_distribution_y9=[0.15,0.22,0.21,0.15,0.099,0.048,0.066,0.061];
transition_y1=[
0.019,0.11,0.17,0.069,0.17,0.19,0.13,0.14|
0.11,0.14,0.14,0.16,0.28,0.073,0.079,0.028|
0.1,0.28,0.14,0.3,0.062,0.0066,0.032,0.081|
0.13,0.16,0.098,0.018,0.16,0.14,0.15,0.14|
0.11,0.097,0.023,0.2,0.086,0.12,0.19,0.18|
0.11,0.12,0.22,0.13,0.22,0.043,0.061,0.096|
0.061,0.18,0.2,0.062,0.18,0.087,0.13,0.086|
0.086,0.06,0.076,0.15,0.25,0.063,0.1,0.21|
];
transition_y2=[
0.076,0.049,0.078,0.02,0.15,0.18,0.22,0.23|
0.096,0.078,0.085,0.25,0.084,0.16,0.18,0.068|
0.024,0.14,0.19,0.083,0.2,0.13,0.095,0.14|
0.21,0.092,0.026,0.16,0.097,0.18,0.084,0.15|
0.19,0.05,0.051,0.22,0.16,0.11,0.12,0.097|
0.18,0.052,0.061,0.15,0.06,0.0065,0.27,0.22|
0.3,0.16,0.21,0.05,0.044,0.014,0.14,0.088|
0.18,0.12,0.041,0.037,0.17,0.088,0.17,0.18|
];
transition_y3=[
0.011,0.21,0.14,0.14,0.17,0.23,0.049,0.055|
0.02,0.02,0.015,0.13,0.24,0.12,0.25,0.21|
0.15,0.033,0.023,0.24,0.078,0.24,0.028,0.21|
0.23,0.12,0.012,0.16,0.06,0.085,0.2,0.14|
0.19,0.12,0.093,0.095,0.14,0.16,0.12,0.088|
0.012,0.11,0.2,0.051,0.21,0.16,0.18,0.085|
0.0061,0.12,0.15,0.095,0.073,0.17,0.19,0.2|
0.25,0.14,0.15,0.13,0.22,0.03,0.069,0.018|
];
transition_y4=[
0.15,0.063,0.21,0.024,0.075,0.19,0.058,0.23|
0.15,0.021,0.19,0.13,0.17,0.13,0.068,0.14|
0.18,0.16,0.021,0.12,0.21,0.062,0.14,0.11|
0.11,0.13,0.11,0.12,0.15,0.14,0.18,0.066|
0.13,0.1,0.11,0.19,0.022,0.13,0.19,0.13|
0.059,0.048,0.14,0.023,0.063,0.21,0.26,0.19|
0.024,0.027,0.18,0.22,0.24,0.081,0.11,0.13|
0.14,0.063,0.15,0.049,0.0072,0.098,0.29,0.21|
];
transition_y5=[
0.12,0.16,0.18,0.057,0.26,0.074,0.084,0.073|
0.2,0.093,0.027,0.083,0.22,0.12,0.17,0.098|
0.12,0.14,0.14,0.14,0.041,0.11,0.18,0.11|
0.18,0.043,0.069,0.18,0.2,0.11,0.17,0.048|
0.069,0.11,0.046,0.15,0.18,0.15,0.12,0.18|
0.21,0.13,0.094,0.13,0.022,0.097,0.13,0.18|
0.21,0.19,0.06,0.033,0.18,0.098,0.14,0.079|
0.096,0.095,0.19,0.096,0.095,0.23,0.12,0.087|
];
transition_y6=[
0.23,0.13,0.19,0.039,0.19,0.084,0.018,0.12|
0.17,0.13,0.014,0.2,0.17,0.19,0.051,0.069|
0.023,0.063,0.22,0.077,0.075,0.26,0.12,0.16|
0.22,0.11,0.18,0.14,0.038,0.21,0.029,0.071|
0.18,0.23,0.073,0.23,0.04,0.19,0.0028,0.054|
0.099,0.16,0.16,0.16,0.13,0.1,0.036,0.16|
0.059,0.045,0.031,0.27,0.2,0.015,0.079,0.3|
0.13,0.11,0.18,0.15,0.045,0.12,0.13,0.14|
];
transition_y7=[
0.12,0.11,0.13,0.16,0.16,0.1,0.14,0.078|
0.053,0.31,0.13,0.072,0.1,0.015,0.22,0.1|
0.18,0.13,0.1,0.045,0.1,0.14,0.17,0.13|
0.16,0.18,0.014,0.086,0.17,0.11,0.18,0.095|
0.093,0.19,0.22,0.032,0.12,0.22,0.021,0.12|
0.2,0.15,0.043,0.14,0.12,0.0057,0.12,0.21|
0.14,0.039,0.28,0.17,0.0082,0.26,0.1,0.0058|
0.072,0.18,0.15,0.19,0.11,0.073,0.16,0.066|
];
transition_y8=[
0.19,0.04,0.2,0.2,0.034,0.2,0.11,0.024|
0.21,0.24,0.2,0.15,0.14,0.0098,0.025,0.018|
0.2,0.1,0.095,0.13,0.14,0.19,0.053,0.081|
0.12,0.093,0.0074,0.18,0.16,0.083,0.18,0.18|
0.16,0.19,0.17,0.18,0.041,0.18,0.021,0.062|
0.21,0.2,0.12,0.11,0.072,0.027,0.21,0.058|
0.17,0.077,0.027,0.097,0.16,0.18,0.11,0.18|
0.046,0.13,0.05,0.19,0.06,0.092,0.21,0.22|
];
transition_y9=[
0.092,0.1,0.21,0.078,0.013,0.18,0.14,0.18|
0.15,0.16,0.15,0.15,0.055,0.13,0.05,0.16|
0.1,0.033,0.21,0.032,0.23,0.13,0.11,0.15|
0.16,0.021,0.15,0.15,0.16,0.11,0.16,0.098|
0.029,0.0071,0.12,0.26,0.13,0.11,0.17,0.18|
0.031,0.028,0.047,0.24,0.14,0.11,0.25,0.16|
0.16,0.12,0.27,0.17,0.14,0.018,0.1,0.014|
0.23,0.18,0.17,0.099,0.11,0.06,0.077,0.072|
];
